
%FILE DATA:	Soccer Computational Problem for MiniZinc Models	%
%AUTHOR:	Jack Wall	%
%CONTACT:  	116397063@umail.ucc.ie			%
%LAST UPDATE:	03/03/2020, 12:08:58						%
%DESCRIPTION: 	32 games played with 24 games left				%


n=8; %number of teams

%Games to play
games=[|4,5|6,8|5,7|7,1|6,1|5,4|8,1|1,8|5,1|3,6|7,4|7,2|2,8|2,7|8,4|6,4|8,6|1,3|3,4|6,2|3,5|5,3|8,2|5,2|];

%Initial points
iPoints=[8,6,15,11,13,15,6,16];

%POSITION CONSTRAINTS
% [|teamID, operator, position|...]
% operators index:
%  1 for =  operator
%  2 for >  operator
%  3 for >= operator
%  4 for <  operator
%  5 for <= operator
positionConstraints=[|8,5,1|3,1,2|6,3,3|5,5,4|4,5,5|];